c A SAT instance generated from a 3-CNF formula that had 70 clauses and 10 variables
p cnf 10 70
7 8 1 0
-7 8 10 0
4 10 7 0
9 10 6 0
-5 7 10 0
-3 1 -2 0
-5 -2 -8 0
8 4 -6 0
6 -1 -4 0
-3 7 10 0
6 4 -7 0
8 -10 4 0
5 1 7 0
-9 2 -6 0
10 -3 1 0
9 10 3 0
-10 -1 -8 0
-6 -9 10 0
-4 -5 -2 0
6 -2 4 0
-6 -8 -2 0
-8 4 10 0
6 -2 -3 0
9 1 3 0
-10 6 3 0
-7 -1 2 0
3 -5 7 0
-10 7 -2 0
-5 3 -8 0
3 -8 -2 0
5 9 3 0
9 7 2 0
9 -8 6 0
4 1 -10 0
-4 9 10 0
-8 -2 1 0
-1 -6 -9 0
9 -8 -10 0
10 6 5 0
-4 -7 -2 0
3 -5 9 0
8 -4 -5 0
2 1 -5 0
-5 -1 -8 0
-1 -5 -9 0
-4 -1 2 0
-10 6 -5 0
-1 2 -3 0
-10 6 4 0
1 5 2 0
-6 4 10 0
2 -1 -5 0
-4 10 3 0
-5 -8 10 0
-8 10 -6 0
-4 10 -2 0
-2 5 -3 0
6 -10 -7 0
-8 -7 2 0
-6 2 9 0
-6 5 3 0
-6 4 2 0
6 -2 3 0
4 -9 -6 0
8 -10 -3 0
3 -5 7 0
-5 -6 -2 0
7 5 9 0
3 -7 -1 0
-10 -4 -5 0
%
0

28 32 10 50 65 31 60 38 30 82
